c Sudoku solution
p cnf 729 0
165 0
176 0
192 0
244 0
267 0
288 0
334 0
184 0
424 0
439 0
468 0
523 0
541 0
574 0
636 0
662 0
654 0
725 0
742 0
797 0
819 0
847 0
873 0
896 0
994 0
864 0
714 0
945 0
885 0
961 0
858 0
989 0
972 0
778 0
781 0
733 0
953 0
363 0
113 0
293 0
387 0
683 0
443 0
649 0
566 0
486 0
582 0
412 0
599 0
698 0
346 0
148 0
756 0
769 0
395 0
491 0
271 0
379 0
151 0
352 0
259 0
137 0
311 0
129 0
328 0
621 0
822 0
831 0
226 0
232 0
215 0
617 0
535 0
518 0
557 0
455 0
477 0
675 0
916 0
927 0
938 0
